0 67 65 63 62 74 72 61 64 29 23 10 
0 57 54 69 
0 91 95 94 92 82 83 85 88 89 90 
0 43 47 49 52 21 99 100 97 93 96 98 
0 13 17 18 19 15 16 14 12 
0 80 79 77 73 70 71 76 78 81 84 86 87 
0 27 30 32 33 37 35 31 51 50 48 46 
0 75 1 2 4 6 9 8 11 7 3 5 
0 22 25 26 28 36 39 38 34 24 20 
0 41 40 42 44 45 59 60 58 56 53 55 68 66 
